NAME : hk48
TYPE : OP
DIMENSION : 48
COST_LIMIT : 5731
ROUTE_NODES : 28
ROUTE_SCORE : 1764
ROUTE_COST : 5718
NODE_SEQUENCE_SECTION
1
2
48
26
29
5
32
25
3
23
9
10
40
36
34
6
8
47
7
38
14
18
13
28
22
12
17
35
-1
DEPOT_SECTION
1
-1
EOF
